maximize
OBJ:100x0 + 100x1 + 100x2 + 100x3 + 100x4 + 100x5 + 100x6 + 100x7 + 100x8 + 100x9 + 100x10 + 100x11 + 100x12 + 100x13 + 100x14 + 100x15 + 100x16 + 100x17 + 100x18 + 100x19 + 100x20 + 100x21 + 100x22 + 100x23 + 100x24 + 100x25 + 100x26 + 100x27 + 100x28 + 100x29 + 100x30 + 100x31 + 100x32 + 100x33 + 100x34 + 100x35 + 100x36 + 100x37 + 100x38 + 100x39 + 100x40 + 100x41 + 100x42 + 100x43 + 100x44 + 100x45 + 100x46 + 100x47 + 100x48 + 100x49 + 100x50 + 100x51 + 100x52 + 100x53 + 100x54 + 100x55 + 100x56 + 100x57 + 100x58 + 100x59 + 100x60 + 100x61 + 100x62 + 100x63 + 100x64 - y7_17 - y36_53 - y26_30 - y47_53 - y18_26 - y36_62 - y7_35 - y18_35 - y18_44 - y8_9 - y9_63 - y0_23 - y6_57 - y29_59 - y21_55 - y21_64 - y10_27 - y33_47 - y3_15 - y10_63 - y14_15 - y22_28 - y22_37 - y22_46 - y36_48 - y47_48 - y17_44 - y36_57 - y47_57 - y28_53 - y6_43 - y48_58 - y40_54 - y21_50 - y6_61 - y40_63 - y10_22 - y10_31 - y25_29 - y44_51 - y3_10 - y10_58 - y14_28 - y43_64 - y24_60 - y35_60 - y16_56 - y36_43 - y5_46 - y36_61 - y9_44 - y47_61 - y59_63 - y9_62 - y6_38 - y21_45 - y6_56 - y2_13 - y39_62 - y33_37 - y25_33 - y10_44 - y43_50 - y24_46 - y35_46 - y43_59 - y24_55 - y1_62 - y35_64 - y28_34 - y7_11 - y5_41 - y17_52 - y6_15 - y28_52 - y5_59 - y17_61 - y9_57 - y29_35 - y21_40 - y2_8 - y2_17 - y54_55 - y10_30 - y12_58 - y13_32 - y3_9 - y4_63 - y43_45 - y43_54 - y16_37 - y1_48 - y35_50 - y43_63 - y9_25 - y36_51 - y47_51 - y9_43 - y5_54 - y17_56 - y27_60 - y61_62 - y39_43 - y20_39 - y39_52 - y31_48 - y2_21 - y54_59 - y23_53 - y4_49 - y3_4 - y51_53 - y32_49 - y32_58 - y35_54 - y1_61 - y13_63 - y46_60 - y57_60 - y17_33 - y28_33 - y6_14 - y6_23 - y27_55 - y27_64 - y39_47 - y20_43 - y23_39 - y2_16 - y54_63 - y4_44 - y32_35 - y1_29 - y4_62 - y43_44 - y13_40 - y43_53 - y13_49 - y16_45 - y17_19 - y57_64 - y38_60 - y5_35 - y6_9 - y8_46 - y19_46 - y42_48 - y0_51 - y8_64 - y39_51 - y23_34 - y31_47 - y39_60 - y23_43 - y20_56 - y12_52 - y13_17 - y23_52 - y1_33 - y13_35 - y16_49 - y15_53 - y26_53 - y49_55 - y9_28 - y15_62 - y5_39 - y7_58 - y18_58 - y19_41 - y30_50 - y42_52 - y27_63 - y0_46 - y30_59 - y0_55 - y11_55 - y12_20 - y0_64 - y11_64 - y23_29 - y4_25 - y12_38 - y20_51 - y12_47 - y23_47 - y12_56 - y4_52 - y34_53 - y1_28 - y24_30 - y16_26 - y56_62 - y1_46 - y5_7 - y26_48 - y46_63 - y57_63 - y18_62 - y8_27 - y8_36 - y19_36 - y30_36 - y30_45 - y42_47 - y11_41 - y11_50 - y8_63 - y60_64 - y12_24 - y23_24 - y20_37 - y41_60 - y52_60 - y34_39 - y1_23 - y16_21 - y34_57 - y45_57 - y37_53 - y22_64 - y3_60 - y15_34 - y26_34 - y46_49 - y7_48 - y8_13 - y27_35 - y27_44 - y8_40 - y11_36 - y8_49 - y30_49 - y30_58 - y12_19 - y52_55 - y23_28 - y41_64 - y34_43 - y53_56 - y37_39 - y34_52 - y45_61 - y3_55 - y3_64 - y15_29 - y18_25 - y15_38 - y38_49 - y18_43 - y15_56 - y26_56 - y0_4 - y0_13 - y7_61 - y8_26 - y18_61 - y19_26 - y30_35 - y60_63 - y12_23 - y41_59 - y33_55 - y25_51 - y10_62 - y34_47 - y14_41 - y37_43 - y14_50 - y22_63 - y14_59 - y37_61 - y15_33 - y18_29 - y7_38 - y7_47 - y18_56 - y29_53 - y8_30 - y0_26 - y29_62 - y21_58 - y4_5 - y33_50 - y22_31 - y3_27 - y14_27 - y37_38 - y45_51 - y22_58 - y3_54 - y15_19 - y37_56 - y7_24 - y47_60 - y18_33 - y7_42 - y18_42 - y48_52 - y0_12 - y0_21 - y6_55 - y10_34 - y25_32 - y10_43 - y3_13 - y10_61 - y51_62 - y22_35 - y14_31 - y14_49 - y7_10 - y15_23 - y17_51 - y47_64 - y17_60 - y29_34 - y6_41 - y40_43 - y48_56 - y0_16 - y6_50 - y11_16 - y21_48 - y29_52 - y10_47 - y33_49 - y25_45 - y3_8 - y3_17 - y2_61 - y3_26 - y14_26 - y24_58 - y3_44 - y16_63 - y7_14 - y17_46 - y28_46 - y9_42 - y17_55 - y6_36 - y29_38 - y6_45 - y29_47 - y21_43 - y6_63 - y54_58 - y10_33 - y10_42 - y2_38 - y25_40 - y3_12 - y43_48 - y43_57 - y13_53 - y14_30 - y1_60 - y13_62 - y35_62 - y7_9 - y55_58 - y47_54 - y28_50 - y28_59 - y21_29 - y29_51 - y40_51 - y39_55 - y39_64 - y10_37 - y25_35 - y51_56 - y32_52 - y13_48 - y35_48 - y1_64 - y16_62 - y17_36 - y17_45 - y47_58 - y9_41 - y17_54 - y5_52 - y6_17 - y21_33 - y10_14 - y20_46 - y39_59 - y12_51 - y23_60 - y13_25 - y2_37 - y32_38 - y13_34 - y43_47 - y1_59 - y24_61 - y5_20 - y28_31 - y9_27 - y9_36 - y28_49 - y9_54 - y42_60 - y39_45 - y2_5 - y31_50 - y39_63 - y12_46 - y31_59 - y12_55 - y24_29 - y51_55 - y24_38 - y35_38 - y16_34 - y13_47 - y13_56 - y46_53 - y9_13 - y46_62 - y9_31 - y21_23 - y30_62 - y0_58 - y11_58 - y2_9 - y12_41 - y13_15 - y31_63 - y4_55 - y24_33 - y32_46 - y1_40 - y13_42 - y24_42 - y16_47 - y1_58 - y5_19 - y17_21 - y46_57 - y9_17 - y38_53 - y5_28 - y17_30 - y28_30 - y6_11 - y27_43 - y30_39 - y27_52 - y30_48 - y30_57 - y20_22 - y12_18 - y20_31 - y12_27 - y2_4 - y4_23 - y31_40 - y12_45 - y4_41 - y4_50 - y23_63 - y13_28 - y24_28 - y34_60 - y13_37 - y1_44 - y5_14 - y5_23 - y46_61 - y15_55 - y38_57 - y7_60 - y27_38 - y19_34 - y27_47 - y0_39 - y0_48 - y11_48 - y8_61 - y0_57 - y20_35 - y4_18 - y4_27 - y23_49 - y45_46 - y22_62 - y45_64 - y37_60 - y46_47 - y26_41 - y46_56 - y38_52 - y15_59 - y19_20 - y8_29 - y27_42 - y11_25 - y19_38 - y11_34 - y42_49 - y8_56 - y20_21 - y12_17 - y41_53 - y41_62 - y52_62 - y33_58 - y23_35 - y53_54 - y22_57 - y45_59 - y3_62 - y15_27 - y37_64 - y26_54 - y18_50 - y8_15 - y19_24 - y0_20 - y0_29 - y8_42 - y0_38 - y11_38 - y12_21 - y41_57 - y33_53 - y25_49 - y25_58 - y1_11 - y34_45 - y34_54 - y37_50 - y45_63 - y56_63 - y14_57 - y7_18 - y15_31 - y26_31 - y37_49 - y7_36 - y26_49 - y8_19 - y48_55 - y0_15 - y18_63 - y48_64 - y40_60 - y8_37 - y21_56 - y0_33 - y11_42 - y12_16 - y10_46 - y33_57 - y44_57 - y25_53 - y1_6 - y3_34 - y22_47 - y22_56 - y14_52 - y37_54 - y14_61 - y7_22 - y15_35 - y7_31 - y17_63 - y7_40 - y18_40 - y0_1 - y18_49 - y48_50 - y0_10 - y19_23 - y0_19 - y29_55 - y21_51 - y6_62 - y40_64 - y33_34 - y4_7 - y33_43 - y25_39 - y33_52 - y2_46 - y10_59 - y22_24 - y33_61 - y2_55 - y3_20 - y34_35 - y2_64 - y22_42 - y34_44 - y14_38 - y37_40 - y14_47 - y7_8 - y14_56
 Subject to
C1: x0+x1-y0_1 <=1 
C2: x0+x4-y0_4 <=1 
C3: x0+x6 <=1 
C4: x0+x10-y0_10 <=1 
C5: x0+x12-y0_12 <=1 
C6: x0+x13-y0_13 <=1 
C7: x0+x15-y0_15 <=1 
C8: x0+x16-y0_16 <=1 
C9: x0+x19-y0_19 <=1 
C10: x0+x20-y0_20 <=1 
C11: x0+x21-y0_21 <=1 
C12: x0+x23-y0_23 <=1 
C13: x0+x25 <=1 
C14: x0+x26-y0_26 <=1 
C15: x0+x29-y0_29 <=1 
C16: x0+x31 <=1 
C17: x0+x33-y0_33 <=1 
C18: x0+x36 <=1 
C19: x0+x38-y0_38 <=1 
C20: x0+x39-y0_39 <=1 
C21: x0+x40 <=1 
C22: x0+x43 <=1 
C23: x0+x44 <=1 
C24: x0+x46-y0_46 <=1 
C25: x0+x47 <=1 
C26: x0+x48-y0_48 <=1 
C27: x0+x50 <=1 
C28: x0+x51-y0_51 <=1 
C29: x0+x53 <=1 
C30: x0+x54 <=1 
C31: x0+x55-y0_55 <=1 
C32: x0+x57-y0_57 <=1 
C33: x0+x58-y0_58 <=1 
C34: x0+x62 <=1 
C35: x0+x64-y0_64 <=1 
C36: x1+x5 <=1 
C37: x1+x6-y1_6 <=1 
C38: x1+x11-y1_11 <=1 
C39: x1+x12 <=1 
C40: x1+x19 <=1 
C41: x1+x20 <=1 
C42: x1+x23-y1_23 <=1 
C43: x1+x27 <=1 
C44: x1+x28-y1_28 <=1 
C45: x1+x29-y1_29 <=1 
C46: x1+x31 <=1 
C47: x1+x33-y1_33 <=1 
C48: x1+x35 <=1 
C49: x1+x37 <=1 
C50: x1+x38 <=1 
C51: x1+x39 <=1 
C52: x1+x40-y1_40 <=1 
C53: x1+x41 <=1 
C54: x1+x42 <=1 
C55: x1+x43 <=1 
C56: x1+x44-y1_44 <=1 
C57: x1+x46-y1_46 <=1 
C58: x1+x47 <=1 
C59: x1+x48-y1_48 <=1 
C60: x1+x49 <=1 
C61: x1+x50 <=1 
C62: x1+x52 <=1 
C63: x1+x54 <=1 
C64: x1+x55 <=1 
C65: x1+x56 <=1 
C66: x1+x58-y1_58 <=1 
C67: x1+x59-y1_59 <=1 
C68: x1+x60-y1_60 <=1 
C69: x1+x61-y1_61 <=1 
C70: x1+x62-y1_62 <=1 
C71: x1+x63 <=1 
C72: x1+x64-y1_64 <=1 
C73: x2+x4-y2_4 <=1 
C74: x2+x5-y2_5 <=1 
C75: x2+x8-y2_8 <=1 
C76: x2+x9-y2_9 <=1 
C77: x2+x13-y2_13 <=1 
C78: x2+x16-y2_16 <=1 
C79: x2+x17-y2_17 <=1 
C80: x2+x20 <=1 
C81: x2+x21-y2_21 <=1 
C82: x2+x30 <=1 
C83: x2+x34 <=1 
C84: x2+x35 <=1 
C85: x2+x37-y2_37 <=1 
C86: x2+x38-y2_38 <=1 
C87: x2+x42 <=1 
C88: x2+x43 <=1 
C89: x2+x44 <=1 
C90: x2+x45 <=1 
C91: x2+x46-y2_46 <=1 
C92: x2+x52 <=1 
C93: x2+x54 <=1 
C94: x2+x55-y2_55 <=1 
C95: x2+x58 <=1 
C96: x2+x59 <=1 
C97: x2+x61-y2_61 <=1 
C98: x2+x64-y2_64 <=1 
C99: x3+x4-y3_4 <=1 
C100: x3+x8-y3_8 <=1 
C101: x3+x9-y3_9 <=1 
C102: x3+x10-y3_10 <=1 
C103: x3+x11 <=1 
C104: x3+x12-y3_12 <=1 
C105: x3+x13-y3_13 <=1 
C106: x3+x15-y3_15 <=1 
C107: x3+x16 <=1 
C108: x3+x17-y3_17 <=1 
C109: x3+x19 <=1 
C110: x3+x20-y3_20 <=1 
C111: x3+x22 <=1 
C112: x3+x23 <=1 
C113: x3+x26-y3_26 <=1 
C114: x3+x27-y3_27 <=1 
C115: x3+x28 <=1 
C116: x3+x29 <=1 
C117: x3+x31 <=1 
C118: x3+x34-y3_34 <=1 
C119: x3+x35 <=1 
C120: x3+x40 <=1 
C121: x3+x44-y3_44 <=1 
C122: x3+x45 <=1 
C123: x3+x47 <=1 
C124: x3+x48 <=1 
C125: x3+x50 <=1 
C126: x3+x51 <=1 
C127: x3+x53 <=1 
C128: x3+x54-y3_54 <=1 
C129: x3+x55-y3_55 <=1 
C130: x3+x57 <=1 
C131: x3+x58 <=1 
C132: x3+x59 <=1 
C133: x3+x60-y3_60 <=1 
C134: x3+x62-y3_62 <=1 
C135: x3+x63 <=1 
C136: x3+x64-y3_64 <=1 
C137: x4+x5-y4_5 <=1 
C138: x4+x6 <=1 
C139: x4+x7-y4_7 <=1 
C140: x4+x10 <=1 
C141: x4+x12 <=1 
C142: x4+x14 <=1 
C143: x4+x15 <=1 
C144: x4+x17 <=1 
C145: x4+x18-y4_18 <=1 
C146: x4+x22 <=1 
C147: x4+x23-y4_23 <=1 
C148: x4+x25-y4_25 <=1 
C149: x4+x27-y4_27 <=1 
C150: x4+x28 <=1 
C151: x4+x30 <=1 
C152: x4+x32 <=1 
C153: x4+x34 <=1 
C154: x4+x35 <=1 
C155: x4+x37 <=1 
C156: x4+x39 <=1 
C157: x4+x41-y4_41 <=1 
C158: x4+x44-y4_44 <=1 
C159: x4+x45 <=1 
C160: x4+x49-y4_49 <=1 
C161: x4+x50-y4_50 <=1 
C162: x4+x52-y4_52 <=1 
C163: x4+x55-y4_55 <=1 
C164: x4+x57 <=1 
C165: x4+x61 <=1 
C166: x4+x62-y4_62 <=1 
C167: x4+x63-y4_63 <=1 
C168: x5+x7-y5_7 <=1 
C169: x5+x10 <=1 
C170: x5+x12 <=1 
C171: x5+x13 <=1 
C172: x5+x14-y5_14 <=1 
C173: x5+x15 <=1 
C174: x5+x16 <=1 
C175: x5+x17 <=1 
C176: x5+x19-y5_19 <=1 
C177: x5+x20-y5_20 <=1 
C178: x5+x22 <=1 
C179: x5+x23-y5_23 <=1 
C180: x5+x25 <=1 
C181: x5+x27 <=1 
C182: x5+x28-y5_28 <=1 
C183: x5+x32 <=1 
C184: x5+x33 <=1 
C185: x5+x34 <=1 
C186: x5+x35-y5_35 <=1 
C187: x5+x39-y5_39 <=1 
C188: x5+x40 <=1 
C189: x5+x41-y5_41 <=1 
C190: x5+x42 <=1 
C191: x5+x43 <=1 
C192: x5+x46-y5_46 <=1 
C193: x5+x47 <=1 
C194: x5+x50 <=1 
C195: x5+x51 <=1 
C196: x5+x52-y5_52 <=1 
C197: x5+x54-y5_54 <=1 
C198: x5+x57 <=1 
C199: x5+x58 <=1 
C200: x5+x59-y5_59 <=1 
C201: x5+x62 <=1 
C202: x5+x64 <=1 
C203: x6+x9-y6_9 <=1 
C204: x6+x10 <=1 
C205: x6+x11-y6_11 <=1 
C206: x6+x12 <=1 
C207: x6+x13 <=1 
C208: x6+x14-y6_14 <=1 
C209: x6+x15-y6_15 <=1 
C210: x6+x17-y6_17 <=1 
C211: x6+x18 <=1 
C212: x6+x20 <=1 
C213: x6+x21 <=1 
C214: x6+x22 <=1 
C215: x6+x23-y6_23 <=1 
C216: x6+x25 <=1 
C217: x6+x27 <=1 
C218: x6+x32 <=1 
C219: x6+x33 <=1 
C220: x6+x34 <=1 
C221: x6+x36-y6_36 <=1 
C222: x6+x38-y6_38 <=1 
C223: x6+x39 <=1 
C224: x6+x40 <=1 
C225: x6+x41-y6_41 <=1 
C226: x6+x43-y6_43 <=1 
C227: x6+x44 <=1 
C228: x6+x45-y6_45 <=1 
C229: x6+x49 <=1 
C230: x6+x50-y6_50 <=1 
C231: x6+x51 <=1 
C232: x6+x53 <=1 
C233: x6+x54 <=1 
C234: x6+x55-y6_55 <=1 
C235: x6+x56-y6_56 <=1 
C236: x6+x57-y6_57 <=1 
C237: x6+x58 <=1 
C238: x6+x61-y6_61 <=1 
C239: x6+x62-y6_62 <=1 
C240: x6+x63-y6_63 <=1 
C241: x7+x8-y7_8 <=1 
C242: x7+x9-y7_9 <=1 
C243: x7+x10-y7_10 <=1 
C244: x7+x11-y7_11 <=1 
C245: x7+x14-y7_14 <=1 
C246: x7+x17-y7_17 <=1 
C247: x7+x18-y7_18 <=1 
C248: x7+x22-y7_22 <=1 
C249: x7+x24-y7_24 <=1 
C250: x7+x28 <=1 
C251: x7+x30 <=1 
C252: x7+x31-y7_31 <=1 
C253: x7+x32 <=1 
C254: x7+x35-y7_35 <=1 
C255: x7+x36-y7_36 <=1 
C256: x7+x38-y7_38 <=1 
C257: x7+x39 <=1 
C258: x7+x40-y7_40 <=1 
C259: x7+x42-y7_42 <=1 
C260: x7+x43 <=1 
C261: x7+x44 <=1 
C262: x7+x45 <=1 
C263: x7+x46 <=1 
C264: x7+x47-y7_47 <=1 
C265: x7+x48-y7_48 <=1 
C266: x7+x51 <=1 
C267: x7+x56 <=1 
C268: x7+x57 <=1 
C269: x7+x58-y7_58 <=1 
C270: x7+x60-y7_60 <=1 
C271: x7+x61-y7_61 <=1 
C272: x7+x62 <=1 
C273: x8+x9-y8_9 <=1 
C274: x8+x12 <=1 
C275: x8+x13-y8_13 <=1 
C276: x8+x14 <=1 
C277: x8+x15-y8_15 <=1 
C278: x8+x16 <=1 
C279: x8+x19-y8_19 <=1 
C280: x8+x21 <=1 
C281: x8+x23 <=1 
C282: x8+x25 <=1 
C283: x8+x26-y8_26 <=1 
C284: x8+x27-y8_27 <=1 
C285: x8+x28 <=1 
C286: x8+x29-y8_29 <=1 
C287: x8+x30-y8_30 <=1 
C288: x8+x36-y8_36 <=1 
C289: x8+x37-y8_37 <=1 
C290: x8+x38 <=1 
C291: x8+x39 <=1 
C292: x8+x40-y8_40 <=1 
C293: x8+x41 <=1 
C294: x8+x42-y8_42 <=1 
C295: x8+x43 <=1 
C296: x8+x44 <=1 
C297: x8+x45 <=1 
C298: x8+x46-y8_46 <=1 
C299: x8+x47 <=1 
C300: x8+x48 <=1 
C301: x8+x49-y8_49 <=1 
C302: x8+x54 <=1 
C303: x8+x55 <=1 
C304: x8+x56-y8_56 <=1 
C305: x8+x59 <=1 
C306: x8+x60 <=1 
C307: x8+x61-y8_61 <=1 
C308: x8+x62 <=1 
C309: x8+x63-y8_63 <=1 
C310: x8+x64-y8_64 <=1 
C311: x9+x13-y9_13 <=1 
C312: x9+x14 <=1 
C313: x9+x15 <=1 
C314: x9+x16 <=1 
C315: x9+x17-y9_17 <=1 
C316: x9+x18 <=1 
C317: x9+x20 <=1 
C318: x9+x25-y9_25 <=1 
C319: x9+x27-y9_27 <=1 
C320: x9+x28-y9_28 <=1 
C321: x9+x29 <=1 
C322: x9+x30 <=1 
C323: x9+x31-y9_31 <=1 
C324: x9+x32 <=1 
C325: x9+x34 <=1 
C326: x9+x36-y9_36 <=1 
C327: x9+x37 <=1 
C328: x9+x40 <=1 
C329: x9+x41-y9_41 <=1 
C330: x9+x42-y9_42 <=1 
C331: x9+x43-y9_43 <=1 
C332: x9+x44-y9_44 <=1 
C333: x9+x45 <=1 
C334: x9+x46 <=1 
C335: x9+x48 <=1 
C336: x9+x50 <=1 
C337: x9+x51 <=1 
C338: x9+x54-y9_54 <=1 
C339: x9+x57-y9_57 <=1 
C340: x9+x58 <=1 
C341: x9+x61 <=1 
C342: x9+x62-y9_62 <=1 
C343: x9+x63-y9_63 <=1 
C344: x10+x11 <=1 
C345: x10+x12 <=1 
C346: x10+x13 <=1 
C347: x10+x14-y10_14 <=1 
C348: x10+x15 <=1 
C349: x10+x18 <=1 
C350: x10+x19 <=1 
C351: x10+x22-y10_22 <=1 
C352: x10+x23 <=1 
C353: x10+x25 <=1 
C354: x10+x27-y10_27 <=1 
C355: x10+x30-y10_30 <=1 
C356: x10+x31-y10_31 <=1 
C357: x10+x32 <=1 
C358: x10+x33-y10_33 <=1 
C359: x10+x34-y10_34 <=1 
C360: x10+x36 <=1 
C361: x10+x37-y10_37 <=1 
C362: x10+x38 <=1 
C363: x10+x39 <=1 
C364: x10+x42-y10_42 <=1 
C365: x10+x43-y10_43 <=1 
C366: x10+x44-y10_44 <=1 
C367: x10+x45 <=1 
C368: x10+x46-y10_46 <=1 
C369: x10+x47-y10_47 <=1 
C370: x10+x48 <=1 
C371: x10+x49 <=1 
C372: x10+x52 <=1 
C373: x10+x53 <=1 
C374: x10+x58-y10_58 <=1 
C375: x10+x59-y10_59 <=1 
C376: x10+x60 <=1 
C377: x10+x61-y10_61 <=1 
C378: x10+x62-y10_62 <=1 
C379: x10+x63-y10_63 <=1 
C380: x10+x64 <=1 
C381: x11+x13 <=1 
C382: x11+x14 <=1 
C383: x11+x16-y11_16 <=1 
C384: x11+x17 <=1 
C385: x11+x18 <=1 
C386: x11+x25-y11_25 <=1 
C387: x11+x30 <=1 
C388: x11+x33 <=1 
C389: x11+x34-y11_34 <=1 
C390: x11+x36-y11_36 <=1 
C391: x11+x38-y11_38 <=1 
C392: x11+x39 <=1 
C393: x11+x40 <=1 
C394: x11+x41-y11_41 <=1 
C395: x11+x42-y11_42 <=1 
C396: x11+x46 <=1 
C397: x11+x48-y11_48 <=1 
C398: x11+x50-y11_50 <=1 
C399: x11+x52 <=1 
C400: x11+x53 <=1 
C401: x11+x55-y11_55 <=1 
C402: x11+x57 <=1 
C403: x11+x58-y11_58 <=1 
C404: x11+x60 <=1 
C405: x11+x64-y11_64 <=1 
C406: x12+x13 <=1 
C407: x12+x16-y12_16 <=1 
C408: x12+x17-y12_17 <=1 
C409: x12+x18-y12_18 <=1 
C410: x12+x19-y12_19 <=1 
C411: x12+x20-y12_20 <=1 
C412: x12+x21-y12_21 <=1 
C413: x12+x22 <=1 
C414: x12+x23-y12_23 <=1 
C415: x12+x24-y12_24 <=1 
C416: x12+x25 <=1 
C417: x12+x27-y12_27 <=1 
C418: x12+x28 <=1 
C419: x12+x31 <=1 
C420: x12+x32 <=1 
C421: x12+x35 <=1 
C422: x12+x36 <=1 
C423: x12+x37 <=1 
C424: x12+x38-y12_38 <=1 
C425: x12+x41-y12_41 <=1 
C426: x12+x42 <=1 
C427: x12+x44 <=1 
C428: x12+x45-y12_45 <=1 
C429: x12+x46-y12_46 <=1 
C430: x12+x47-y12_47 <=1 
C431: x12+x48 <=1 
C432: x12+x49 <=1 
C433: x12+x51-y12_51 <=1 
C434: x12+x52-y12_52 <=1 
C435: x12+x55-y12_55 <=1 
C436: x12+x56-y12_56 <=1 
C437: x12+x57 <=1 
C438: x12+x58-y12_58 <=1 
C439: x12+x59 <=1 
C440: x12+x61 <=1 
C441: x13+x15-y13_15 <=1 
C442: x13+x17-y13_17 <=1 
C443: x13+x18 <=1 
C444: x13+x20 <=1 
C445: x13+x23 <=1 
C446: x13+x25-y13_25 <=1 
C447: x13+x26 <=1 
C448: x13+x28-y13_28 <=1 
C449: x13+x31 <=1 
C450: x13+x32-y13_32 <=1 
C451: x13+x34-y13_34 <=1 
C452: x13+x35-y13_35 <=1 
C453: x13+x37-y13_37 <=1 
C454: x13+x38 <=1 
C455: x13+x39 <=1 
C456: x13+x40-y13_40 <=1 
C457: x13+x42-y13_42 <=1 
C458: x13+x43 <=1 
C459: x13+x47-y13_47 <=1 
C460: x13+x48-y13_48 <=1 
C461: x13+x49-y13_49 <=1 
C462: x13+x51 <=1 
C463: x13+x53-y13_53 <=1 
C464: x13+x54 <=1 
C465: x13+x56-y13_56 <=1 
C466: x13+x57 <=1 
C467: x13+x58 <=1 
C468: x13+x60 <=1 
C469: x13+x61 <=1 
C470: x13+x62-y13_62 <=1 
C471: x13+x63-y13_63 <=1 
C472: x13+x64 <=1 
C473: x14+x15-y14_15 <=1 
C474: x14+x16 <=1 
C475: x14+x20 <=1 
C476: x14+x25 <=1 
C477: x14+x26-y14_26 <=1 
C478: x14+x27-y14_27 <=1 
C479: x14+x28-y14_28 <=1 
C480: x14+x29 <=1 
C481: x14+x30-y14_30 <=1 
C482: x14+x31-y14_31 <=1 
C483: x14+x33 <=1 
C484: x14+x37 <=1 
C485: x14+x38-y14_38 <=1 
C486: x14+x39 <=1 
C487: x14+x40 <=1 
C488: x14+x41-y14_41 <=1 
C489: x14+x43 <=1 
C490: x14+x44 <=1 
C491: x14+x45 <=1 
C492: x14+x47-y14_47 <=1 
C493: x14+x48 <=1 
C494: x14+x49-y14_49 <=1 
C495: x14+x50-y14_50 <=1 
C496: x14+x52-y14_52 <=1 
C497: x14+x55 <=1 
C498: x14+x56-y14_56 <=1 
C499: x14+x57-y14_57 <=1 
C500: x14+x59-y14_59 <=1 
C501: x14+x61-y14_61 <=1 
C502: x14+x63 <=1 
C503: x15+x16 <=1 
C504: x15+x18 <=1 
C505: x15+x19-y15_19 <=1 
C506: x15+x20 <=1 
C507: x15+x23-y15_23 <=1 
C508: x15+x25 <=1 
C509: x15+x26 <=1 
C510: x15+x27-y15_27 <=1 
C511: x15+x29-y15_29 <=1 
C512: x15+x31-y15_31 <=1 
C513: x15+x33-y15_33 <=1 
C514: x15+x34-y15_34 <=1 
C515: x15+x35-y15_35 <=1 
C516: x15+x38-y15_38 <=1 
C517: x15+x40 <=1 
C518: x15+x41 <=1 
C519: x15+x43 <=1 
C520: x15+x45 <=1 
C521: x15+x46 <=1 
C522: x15+x49 <=1 
C523: x15+x50 <=1 
C524: x15+x51 <=1 
C525: x15+x53-y15_53 <=1 
C526: x15+x55-y15_55 <=1 
C527: x15+x56-y15_56 <=1 
C528: x15+x57 <=1 
C529: x15+x58 <=1 
C530: x15+x59-y15_59 <=1 
C531: x15+x62-y15_62 <=1 
C532: x15+x63 <=1 
C533: x15+x64 <=1 
C534: x16+x17 <=1 
C535: x16+x19 <=1 
C536: x16+x21-y16_21 <=1 
C537: x16+x22 <=1 
C538: x16+x25 <=1 
C539: x16+x26-y16_26 <=1 
C540: x16+x27 <=1 
C541: x16+x28 <=1 
C542: x16+x34-y16_34 <=1 
C543: x16+x37-y16_37 <=1 
C544: x16+x41 <=1 
C545: x16+x42 <=1 
C546: x16+x44 <=1 
C547: x16+x45-y16_45 <=1 
C548: x16+x47-y16_47 <=1 
C549: x16+x49-y16_49 <=1 
C550: x16+x50 <=1 
C551: x16+x54 <=1 
C552: x16+x55 <=1 
C553: x16+x56-y16_56 <=1 
C554: x16+x57 <=1 
C555: x16+x58 <=1 
C556: x16+x60 <=1 
C557: x16+x61 <=1 
C558: x16+x62-y16_62 <=1 
C559: x16+x63-y16_63 <=1 
C560: x17+x19-y17_19 <=1 
C561: x17+x21-y17_21 <=1 
C562: x17+x24 <=1 
C563: x17+x25 <=1 
C564: x17+x27 <=1 
C565: x17+x29 <=1 
C566: x17+x30-y17_30 <=1 
C567: x17+x33-y17_33 <=1 
C568: x17+x36-y17_36 <=1 
C569: x17+x39 <=1 
C570: x17+x41 <=1 
C571: x17+x42 <=1 
C572: x17+x44-y17_44 <=1 
C573: x17+x45-y17_45 <=1 
C574: x17+x46-y17_46 <=1 
C575: x17+x47 <=1 
C576: x17+x51-y17_51 <=1 
C577: x17+x52-y17_52 <=1 
C578: x17+x54-y17_54 <=1 
C579: x17+x55-y17_55 <=1 
C580: x17+x56-y17_56 <=1 
C581: x17+x57 <=1 
C582: x17+x60-y17_60 <=1 
C583: x17+x61-y17_61 <=1 
C584: x17+x62 <=1 
C585: x17+x63-y17_63 <=1 
C586: x17+x64 <=1 
C587: x18+x22 <=1 
C588: x18+x23 <=1 
C589: x18+x25-y18_25 <=1 
C590: x18+x26-y18_26 <=1 
C591: x18+x27 <=1 
C592: x18+x29-y18_29 <=1 
C593: x18+x33-y18_33 <=1 
C594: x18+x35-y18_35 <=1 
C595: x18+x38 <=1 
C596: x18+x40-y18_40 <=1 
C597: x18+x42-y18_42 <=1 
C598: x18+x43-y18_43 <=1 
C599: x18+x44-y18_44 <=1 
C600: x18+x45 <=1 
C601: x18+x48 <=1 
C602: x18+x49-y18_49 <=1 
C603: x18+x50-y18_50 <=1 
C604: x18+x52 <=1 
C605: x18+x53 <=1 
C606: x18+x55 <=1 
C607: x18+x56-y18_56 <=1 
C608: x18+x57 <=1 
C609: x18+x58-y18_58 <=1 
C610: x18+x60 <=1 
C611: x18+x61-y18_61 <=1 
C612: x18+x62-y18_62 <=1 
C613: x18+x63-y18_63 <=1 
C614: x19+x20-y19_20 <=1 
C615: x19+x23-y19_23 <=1 
C616: x19+x24-y19_24 <=1 
C617: x19+x25 <=1 
C618: x19+x26-y19_26 <=1 
C619: x19+x27 <=1 
C620: x19+x30 <=1 
C621: x19+x33 <=1 
C622: x19+x34-y19_34 <=1 
C623: x19+x35 <=1 
C624: x19+x36-y19_36 <=1 
C625: x19+x37 <=1 
C626: x19+x38-y19_38 <=1 
C627: x19+x41-y19_41 <=1 
C628: x19+x46-y19_46 <=1 
C629: x19+x48 <=1 
C630: x19+x54 <=1 
C631: x19+x55 <=1 
C632: x19+x56 <=1 
C633: x19+x64 <=1 
C634: x20+x21-y20_21 <=1 
C635: x20+x22-y20_22 <=1 
C636: x20+x23 <=1 
C637: x20+x27 <=1 
C638: x20+x31-y20_31 <=1 
C639: x20+x32 <=1 
C640: x20+x35-y20_35 <=1 
C641: x20+x36 <=1 
C642: x20+x37-y20_37 <=1 
C643: x20+x39-y20_39 <=1 
C644: x20+x40 <=1 
C645: x20+x42 <=1 
C646: x20+x43-y20_43 <=1 
C647: x20+x44 <=1 
C648: x20+x45 <=1 
C649: x20+x46-y20_46 <=1 
C650: x20+x48 <=1 
C651: x20+x49 <=1 
C652: x20+x51-y20_51 <=1 
C653: x20+x53 <=1 
C654: x20+x54 <=1 
C655: x20+x56-y20_56 <=1 
C656: x20+x57 <=1 
C657: x20+x59 <=1 
C658: x20+x63 <=1 
C659: x20+x64 <=1 
C660: x21+x23-y21_23 <=1 
C661: x21+x27 <=1 
C662: x21+x28 <=1 
C663: x21+x29-y21_29 <=1 
C664: x21+x30 <=1 
C665: x21+x33-y21_33 <=1 
C666: x21+x34 <=1 
C667: x21+x38 <=1 
C668: x21+x39 <=1 
C669: x21+x40-y21_40 <=1 
C670: x21+x41 <=1 
C671: x21+x42 <=1 
C672: x21+x43-y21_43 <=1 
C673: x21+x45-y21_45 <=1 
C674: x21+x46 <=1 
C675: x21+x47 <=1 
C676: x21+x48-y21_48 <=1 
C677: x21+x49 <=1 
C678: x21+x50-y21_50 <=1 
C679: x21+x51-y21_51 <=1 
C680: x21+x52 <=1 
C681: x21+x53 <=1 
C682: x21+x54 <=1 
C683: x21+x55-y21_55 <=1 
C684: x21+x56-y21_56 <=1 
C685: x21+x58-y21_58 <=1 
C686: x21+x59 <=1 
C687: x21+x60 <=1 
C688: x21+x62 <=1 
C689: x21+x64-y21_64 <=1 
C690: x22+x23 <=1 
C691: x22+x24-y22_24 <=1 
C692: x22+x25 <=1 
C693: x22+x27 <=1 
C694: x22+x28-y22_28 <=1 
C695: x22+x29 <=1 
C696: x22+x31-y22_31 <=1 
C697: x22+x33 <=1 
C698: x22+x35-y22_35 <=1 
C699: x22+x36 <=1 
C700: x22+x37-y22_37 <=1 
C701: x22+x38 <=1 
C702: x22+x42-y22_42 <=1 
C703: x22+x46-y22_46 <=1 
C704: x22+x47-y22_47 <=1 
C705: x22+x51 <=1 
C706: x22+x55 <=1 
C707: x22+x56-y22_56 <=1 
C708: x22+x57-y22_57 <=1 
C709: x22+x58-y22_58 <=1 
C710: x22+x59 <=1 
C711: x22+x62-y22_62 <=1 
C712: x22+x63-y22_63 <=1 
C713: x22+x64-y22_64 <=1 
C714: x23+x24-y23_24 <=1 
C715: x23+x26 <=1 
C716: x23+x27 <=1 
C717: x23+x28-y23_28 <=1 
C718: x23+x29-y23_29 <=1 
C719: x23+x33 <=1 
C720: x23+x34-y23_34 <=1 
C721: x23+x35-y23_35 <=1 
C722: x23+x36 <=1 
C723: x23+x39-y23_39 <=1 
C724: x23+x40 <=1 
C725: x23+x42 <=1 
C726: x23+x43-y23_43 <=1 
C727: x23+x47-y23_47 <=1 
C728: x23+x48 <=1 
C729: x23+x49-y23_49 <=1 
C730: x23+x52-y23_52 <=1 
C731: x23+x53-y23_53 <=1 
C732: x23+x56 <=1 
C733: x23+x57 <=1 
C734: x23+x59 <=1 
C735: x23+x60-y23_60 <=1 
C736: x23+x62 <=1 
C737: x23+x63-y23_63 <=1 
C738: x24+x27 <=1 
C739: x24+x28-y24_28 <=1 
C740: x24+x29-y24_29 <=1 
C741: x24+x30-y24_30 <=1 
C742: x24+x31 <=1 
C743: x24+x33-y24_33 <=1 
C744: x24+x34 <=1 
C745: x24+x38-y24_38 <=1 
C746: x24+x40 <=1 
C747: x24+x41 <=1 
C748: x24+x42-y24_42 <=1 
C749: x24+x43 <=1 
C750: x24+x44 <=1 
C751: x24+x46-y24_46 <=1 
C752: x24+x47 <=1 
C753: x24+x50 <=1 
C754: x24+x55-y24_55 <=1 
C755: x24+x56 <=1 
C756: x24+x58-y24_58 <=1 
C757: x24+x59 <=1 
C758: x24+x60-y24_60 <=1 
C759: x24+x61-y24_61 <=1 
C760: x24+x62 <=1 
C761: x24+x63 <=1 
C762: x25+x29-y25_29 <=1 
C763: x25+x31 <=1 
C764: x25+x32-y25_32 <=1 
C765: x25+x33-y25_33 <=1 
C766: x25+x35-y25_35 <=1 
C767: x25+x37 <=1 
C768: x25+x38 <=1 
C769: x25+x39-y25_39 <=1 
C770: x25+x40-y25_40 <=1 
C771: x25+x43 <=1 
C772: x25+x45-y25_45 <=1 
C773: x25+x46 <=1 
C774: x25+x49-y25_49 <=1 
C775: x25+x51-y25_51 <=1 
C776: x25+x52 <=1 
C777: x25+x53-y25_53 <=1 
C778: x25+x54 <=1 
C779: x25+x55 <=1 
C780: x25+x56 <=1 
C781: x25+x58-y25_58 <=1 
C782: x25+x61 <=1 
C783: x25+x63 <=1 
C784: x26+x30-y26_30 <=1 
C785: x26+x31-y26_31 <=1 
C786: x26+x32 <=1 
C787: x26+x34-y26_34 <=1 
C788: x26+x35 <=1 
C789: x26+x37 <=1 
C790: x26+x41-y26_41 <=1 
C791: x26+x44 <=1 
C792: x26+x45 <=1 
C793: x26+x46 <=1 
C794: x26+x48-y26_48 <=1 
C795: x26+x49-y26_49 <=1 
C796: x26+x51 <=1 
C797: x26+x53-y26_53 <=1 
C798: x26+x54-y26_54 <=1 
C799: x26+x56-y26_56 <=1 
C800: x26+x57 <=1 
C801: x27+x30 <=1 
C802: x27+x35-y27_35 <=1 
C803: x27+x36 <=1 
C804: x27+x38-y27_38 <=1 
C805: x27+x39 <=1 
C806: x27+x40 <=1 
C807: x27+x41 <=1 
C808: x27+x42-y27_42 <=1 
C809: x27+x43-y27_43 <=1 
C810: x27+x44-y27_44 <=1 
C811: x27+x47-y27_47 <=1 
C812: x27+x51 <=1 
C813: x27+x52-y27_52 <=1 
C814: x27+x54 <=1 
C815: x27+x55-y27_55 <=1 
C816: x27+x56 <=1 
C817: x27+x57 <=1 
C818: x27+x58 <=1 
C819: x27+x60-y27_60 <=1 
C820: x27+x61 <=1 
C821: x27+x62 <=1 
C822: x27+x63-y27_63 <=1 
C823: x27+x64-y27_64 <=1 
C824: x28+x30-y28_30 <=1 
C825: x28+x31-y28_31 <=1 
C826: x28+x33-y28_33 <=1 
C827: x28+x34-y28_34 <=1 
C828: x28+x36 <=1 
C829: x28+x38 <=1 
C830: x28+x40 <=1 
C831: x28+x42 <=1 
C832: x28+x46-y28_46 <=1 
C833: x28+x49-y28_49 <=1 
C834: x28+x50-y28_50 <=1 
C835: x28+x52-y28_52 <=1 
C836: x28+x53-y28_53 <=1 
C837: x28+x54 <=1 
C838: x28+x55 <=1 
C839: x28+x57 <=1 
C840: x28+x59-y28_59 <=1 
C841: x28+x61 <=1 
C842: x29+x31 <=1 
C843: x29+x33 <=1 
C844: x29+x34-y29_34 <=1 
C845: x29+x35-y29_35 <=1 
C846: x29+x38-y29_38 <=1 
C847: x29+x39 <=1 
C848: x29+x40 <=1 
C849: x29+x42 <=1 
C850: x29+x44 <=1 
C851: x29+x45 <=1 
C852: x29+x47-y29_47 <=1 
C853: x29+x50 <=1 
C854: x29+x51-y29_51 <=1 
C855: x29+x52-y29_52 <=1 
C856: x29+x53-y29_53 <=1 
C857: x29+x54 <=1 
C858: x29+x55-y29_55 <=1 
C859: x29+x56 <=1 
C860: x29+x57 <=1 
C861: x29+x59-y29_59 <=1 
C862: x29+x60 <=1 
C863: x29+x61 <=1 
C864: x29+x62-y29_62 <=1 
C865: x30+x32 <=1 
C866: x30+x33 <=1 
C867: x30+x35-y30_35 <=1 
C868: x30+x36-y30_36 <=1 
C869: x30+x39-y30_39 <=1 
C870: x30+x42 <=1 
C871: x30+x43 <=1 
C872: x30+x44 <=1 
C873: x30+x45-y30_45 <=1 
C874: x30+x48-y30_48 <=1 
C875: x30+x49-y30_49 <=1 
C876: x30+x50-y30_50 <=1 
C877: x30+x53 <=1 
C878: x30+x55 <=1 
C879: x30+x56 <=1 
C880: x30+x57-y30_57 <=1 
C881: x30+x58-y30_58 <=1 
C882: x30+x59-y30_59 <=1 
C883: x30+x61 <=1 
C884: x30+x62-y30_62 <=1 
C885: x30+x63 <=1 
C886: x31+x32 <=1 
C887: x31+x36 <=1 
C888: x31+x37 <=1 
C889: x31+x39 <=1 
C890: x31+x40-y31_40 <=1 
C891: x31+x41 <=1 
C892: x31+x43 <=1 
C893: x31+x44 <=1 
C894: x31+x45 <=1 
C895: x31+x47-y31_47 <=1 
C896: x31+x48-y31_48 <=1 
C897: x31+x49 <=1 
C898: x31+x50-y31_50 <=1 
C899: x31+x52 <=1 
C900: x31+x56 <=1 
C901: x31+x59-y31_59 <=1 
C902: x31+x61 <=1 
C903: x31+x63-y31_63 <=1 
C904: x32+x33 <=1 
C905: x32+x35-y32_35 <=1 
C906: x32+x37 <=1 
C907: x32+x38-y32_38 <=1 
C908: x32+x40 <=1 
C909: x32+x41 <=1 
C910: x32+x46-y32_46 <=1 
C911: x32+x47 <=1 
C912: x32+x49-y32_49 <=1 
C913: x32+x52-y32_52 <=1 
C914: x32+x53 <=1 
C915: x32+x54 <=1 
C916: x32+x56 <=1 
C917: x32+x58-y32_58 <=1 
C918: x32+x61 <=1 
C919: x32+x62 <=1 
C920: x32+x63 <=1 
C921: x33+x34-y33_34 <=1 
C922: x33+x37-y33_37 <=1 
C923: x33+x41 <=1 
C924: x33+x42 <=1 
C925: x33+x43-y33_43 <=1 
C926: x33+x46 <=1 
C927: x33+x47-y33_47 <=1 
C928: x33+x48 <=1 
C929: x33+x49-y33_49 <=1 
C930: x33+x50-y33_50 <=1 
C931: x33+x51 <=1 
C932: x33+x52-y33_52 <=1 
C933: x33+x53-y33_53 <=1 
C934: x33+x55-y33_55 <=1 
C935: x33+x57-y33_57 <=1 
C936: x33+x58-y33_58 <=1 
C937: x33+x59 <=1 
C938: x33+x60 <=1 
C939: x33+x61-y33_61 <=1 
C940: x33+x62 <=1 
C941: x33+x63 <=1 
C942: x34+x35-y34_35 <=1 
C943: x34+x36 <=1 
C944: x34+x39-y34_39 <=1 
C945: x34+x43-y34_43 <=1 
C946: x34+x44-y34_44 <=1 
C947: x34+x45-y34_45 <=1 
C948: x34+x46 <=1 
C949: x34+x47-y34_47 <=1 
C950: x34+x48 <=1 
C951: x34+x49 <=1 
C952: x34+x51 <=1 
C953: x34+x52-y34_52 <=1 
C954: x34+x53-y34_53 <=1 
C955: x34+x54-y34_54 <=1 
C956: x34+x55 <=1 
C957: x34+x57-y34_57 <=1 
C958: x34+x58 <=1 
C959: x34+x59 <=1 
C960: x34+x60-y34_60 <=1 
C961: x34+x62 <=1 
C962: x34+x64 <=1 
C963: x35+x38-y35_38 <=1 
C964: x35+x43 <=1 
C965: x35+x44 <=1 
C966: x35+x45 <=1 
C967: x35+x46-y35_46 <=1 
C968: x35+x47 <=1 
C969: x35+x48-y35_48 <=1 
C970: x35+x49 <=1 
C971: x35+x50-y35_50 <=1 
C972: x35+x54-y35_54 <=1 
C973: x35+x55 <=1 
C974: x35+x56 <=1 
C975: x35+x59 <=1 
C976: x35+x60-y35_60 <=1 
C977: x35+x61 <=1 
C978: x35+x62-y35_62 <=1 
C979: x35+x63 <=1 
C980: x35+x64-y35_64 <=1 
C981: x36+x39 <=1 
C982: x36+x40 <=1 
C983: x36+x43-y36_43 <=1 
C984: x36+x44 <=1 
C985: x36+x45 <=1 
C986: x36+x46 <=1 
C987: x36+x48-y36_48 <=1 
C988: x36+x51-y36_51 <=1 
C989: x36+x53-y36_53 <=1 
C990: x36+x54 <=1 
C991: x36+x55 <=1 
C992: x36+x56 <=1 
C993: x36+x57-y36_57 <=1 
C994: x36+x58 <=1 
C995: x36+x59 <=1 
C996: x36+x61-y36_61 <=1 
C997: x36+x62-y36_62 <=1 
C998: x37+x38-y37_38 <=1 
C999: x37+x39-y37_39 <=1 
C1000: x37+x40-y37_40 <=1 
C1001: x37+x43-y37_43 <=1 
C1002: x37+x45 <=1 
C1003: x37+x46 <=1 
C1004: x37+x49-y37_49 <=1 
C1005: x37+x50-y37_50 <=1 
C1006: x37+x52 <=1 
C1007: x37+x53-y37_53 <=1 
C1008: x37+x54-y37_54 <=1 
C1009: x37+x56-y37_56 <=1 
C1010: x37+x58 <=1 
C1011: x37+x59 <=1 
C1012: x37+x60-y37_60 <=1 
C1013: x37+x61-y37_61 <=1 
C1014: x37+x62 <=1 
C1015: x37+x64-y37_64 <=1 
C1016: x38+x39 <=1 
C1017: x38+x41 <=1 
C1018: x38+x42 <=1 
C1019: x38+x43 <=1 
C1020: x38+x48 <=1 
C1021: x38+x49-y38_49 <=1 
C1022: x38+x51 <=1 
C1023: x38+x52-y38_52 <=1 
C1024: x38+x53-y38_53 <=1 
C1025: x38+x57-y38_57 <=1 
C1026: x38+x60-y38_60 <=1 
C1027: x38+x62 <=1 
C1028: x38+x63 <=1 
C1029: x39+x43-y39_43 <=1 
C1030: x39+x45-y39_45 <=1 
C1031: x39+x46 <=1 
C1032: x39+x47-y39_47 <=1 
C1033: x39+x48 <=1 
C1034: x39+x49 <=1 
C1035: x39+x51-y39_51 <=1 
C1036: x39+x52-y39_52 <=1 
C1037: x39+x55-y39_55 <=1 
C1038: x39+x56 <=1 
C1039: x39+x59-y39_59 <=1 
C1040: x39+x60-y39_60 <=1 
C1041: x39+x62-y39_62 <=1 
C1042: x39+x63-y39_63 <=1 
C1043: x39+x64-y39_64 <=1 
C1044: x40+x41 <=1 
C1045: x40+x43-y40_43 <=1 
C1046: x40+x44 <=1 
C1047: x40+x48 <=1 
C1048: x40+x50 <=1 
C1049: x40+x51-y40_51 <=1 
C1050: x40+x53 <=1 
C1051: x40+x54-y40_54 <=1 
C1052: x40+x55 <=1 
C1053: x40+x56 <=1 
C1054: x40+x58 <=1 
C1055: x40+x59 <=1 
C1056: x40+x60-y40_60 <=1 
C1057: x40+x63-y40_63 <=1 
C1058: x40+x64-y40_64 <=1 
C1059: x41+x43 <=1 
C1060: x41+x44 <=1 
C1061: x41+x48 <=1 
C1062: x41+x49 <=1 
C1063: x41+x50 <=1 
C1064: x41+x51 <=1 
C1065: x41+x53-y41_53 <=1 
C1066: x41+x56 <=1 
C1067: x41+x57-y41_57 <=1 
C1068: x41+x58 <=1 
C1069: x41+x59-y41_59 <=1 
C1070: x41+x60-y41_60 <=1 
C1071: x41+x62-y41_62 <=1 
C1072: x41+x64-y41_64 <=1 
C1073: x42+x45 <=1 
C1074: x42+x46 <=1 
C1075: x42+x47-y42_47 <=1 
C1076: x42+x48-y42_48 <=1 
C1077: x42+x49-y42_49 <=1 
C1078: x42+x51 <=1 
C1079: x42+x52-y42_52 <=1 
C1080: x42+x53 <=1 
C1081: x42+x55 <=1 
C1082: x42+x56 <=1 
C1083: x42+x59 <=1 
C1084: x42+x60-y42_60 <=1 
C1085: x42+x61 <=1 
C1086: x42+x62 <=1 
C1087: x42+x63 <=1 
C1088: x43+x44-y43_44 <=1 
C1089: x43+x45-y43_45 <=1 
C1090: x43+x47-y43_47 <=1 
C1091: x43+x48-y43_48 <=1 
C1092: x43+x50-y43_50 <=1 
C1093: x43+x53-y43_53 <=1 
C1094: x43+x54-y43_54 <=1 
C1095: x43+x56 <=1 
C1096: x43+x57-y43_57 <=1 
C1097: x43+x58 <=1 
C1098: x43+x59-y43_59 <=1 
C1099: x43+x60 <=1 
C1100: x43+x62 <=1 
C1101: x43+x63-y43_63 <=1 
C1102: x43+x64-y43_64 <=1 
C1103: x44+x46 <=1 
C1104: x44+x47 <=1 
C1105: x44+x49 <=1 
C1106: x44+x51-y44_51 <=1 
C1107: x44+x53 <=1 
C1108: x44+x55 <=1 
C1109: x44+x56 <=1 
C1110: x44+x57-y44_57 <=1 
C1111: x44+x60 <=1 
C1112: x44+x61 <=1 
C1113: x44+x64 <=1 
C1114: x45+x46-y45_46 <=1 
C1115: x45+x47 <=1 
C1116: x45+x49 <=1 
C1117: x45+x50 <=1 
C1118: x45+x51-y45_51 <=1 
C1119: x45+x52 <=1 
C1120: x45+x53 <=1 
C1121: x45+x55 <=1 
C1122: x45+x57-y45_57 <=1 
C1123: x45+x59-y45_59 <=1 
C1124: x45+x61-y45_61 <=1 
C1125: x45+x62 <=1 
C1126: x45+x63-y45_63 <=1 
C1127: x45+x64-y45_64 <=1 
C1128: x46+x47-y46_47 <=1 
C1129: x46+x49-y46_49 <=1 
C1130: x46+x53-y46_53 <=1 
C1131: x46+x56-y46_56 <=1 
C1132: x46+x57-y46_57 <=1 
C1133: x46+x60-y46_60 <=1 
C1134: x46+x61-y46_61 <=1 
C1135: x46+x62-y46_62 <=1 
C1136: x46+x63-y46_63 <=1 
C1137: x47+x48-y47_48 <=1 
C1138: x47+x49 <=1 
C1139: x47+x50 <=1 
C1140: x47+x51-y47_51 <=1 
C1141: x47+x53-y47_53 <=1 
C1142: x47+x54-y47_54 <=1 
C1143: x47+x57-y47_57 <=1 
C1144: x47+x58-y47_58 <=1 
C1145: x47+x60-y47_60 <=1 
C1146: x47+x61-y47_61 <=1 
C1147: x47+x62 <=1 
C1148: x47+x63 <=1 
C1149: x47+x64-y47_64 <=1 
C1150: x48+x50-y48_50 <=1 
C1151: x48+x51 <=1 
C1152: x48+x52-y48_52 <=1 
C1153: x48+x55-y48_55 <=1 
C1154: x48+x56-y48_56 <=1 
C1155: x48+x58-y48_58 <=1 
C1156: x48+x60 <=1 
C1157: x48+x62 <=1 
C1158: x48+x63 <=1 
C1159: x48+x64-y48_64 <=1 
C1160: x49+x51 <=1 
C1161: x49+x53 <=1 
C1162: x49+x54 <=1 
C1163: x49+x55-y49_55 <=1 
C1164: x50+x52 <=1 
C1165: x50+x53 <=1 
C1166: x50+x56 <=1 
C1167: x50+x57 <=1 
C1168: x50+x60 <=1 
C1169: x50+x62 <=1 
C1170: x51+x53-y51_53 <=1 
C1171: x51+x54 <=1 
C1172: x51+x55-y51_55 <=1 
C1173: x51+x56-y51_56 <=1 
C1174: x51+x58 <=1 
C1175: x51+x59 <=1 
C1176: x51+x60 <=1 
C1177: x51+x61 <=1 
C1178: x51+x62-y51_62 <=1 
C1179: x51+x63 <=1 
C1180: x52+x53 <=1 
C1181: x52+x55-y52_55 <=1 
C1182: x52+x56 <=1 
C1183: x52+x57 <=1 
C1184: x52+x58 <=1 
C1185: x52+x59 <=1 
C1186: x52+x60-y52_60 <=1 
C1187: x52+x61 <=1 
C1188: x52+x62-y52_62 <=1 
C1189: x52+x63 <=1 
C1190: x53+x54-y53_54 <=1 
C1191: x53+x56-y53_56 <=1 
C1192: x53+x63 <=1 
C1193: x54+x55-y54_55 <=1 
C1194: x54+x56 <=1 
C1195: x54+x58-y54_58 <=1 
C1196: x54+x59-y54_59 <=1 
C1197: x54+x61 <=1 
C1198: x54+x63-y54_63 <=1 
C1199: x55+x56 <=1 
C1200: x55+x58-y55_58 <=1 
C1201: x55+x59 <=1 
C1202: x55+x61 <=1 
C1203: x55+x62 <=1 
C1204: x55+x63 <=1 
C1205: x55+x64 <=1 
C1206: x56+x58 <=1 
C1207: x56+x60 <=1 
C1208: x56+x62-y56_62 <=1 
C1209: x56+x63-y56_63 <=1 
C1210: x57+x59 <=1 
C1211: x57+x60-y57_60 <=1 
C1212: x57+x63-y57_63 <=1 
C1213: x57+x64-y57_64 <=1 
C1214: x58+x59 <=1 
C1215: x58+x60 <=1 
C1216: x58+x61 <=1 
C1217: x59+x61 <=1 
C1218: x59+x63-y59_63 <=1 
C1219: x59+x64 <=1 
C1220: x60+x63-y60_63 <=1 
C1221: x60+x64-y60_64 <=1 
C1222: x61+x62-y61_62 <=1 
C1223: x62+x63 <=1 
C1224: x62+x64 <=1 
C1225: x63+x64 <=1 

binary
x0
x1
x2
x3
x4
x5
x6
x7
x8
x9
x10
x11
x12
x13
x14
x15
x16
x17
x18
x19
x20
x21
x22
x23
x24
x25
x26
x27
x28
x29
x30
x31
x32
x33
x34
x35
x36
x37
x38
x39
x40
x41
x42
x43
x44
x45
x46
x47
x48
x49
x50
x51
x52
x53
x54
x55
x56
x57
x58
x59
x60
x61
x62
x63
x64
